proyfinal/src/viki/013/experimentInOfficeAgust.take6.output/eca8f07a-b872-4b66-9fad-a6e9d68b3bde.als.out
Reading from standard input... Use '--help' for help.
============================[ Problem Statistics ]=============================
|                                                                             |
|  Number of variables:         87638                                         |
|  Number of clauses:          161767                                         |
|  Parse time:                   0.04 s                                       |
|                                                                             |
============================[ Search Statistics ]==============================
| Conflicts |          ORIGINAL         |          LEARNT          | Progress |
|           |    Vars  Clauses Literals |    Limit  Clauses Lit/Cl |          |
===============================================================================
|       100 |   61996   103755   259304 |    38043      100     10 | 29.259 % |
|       250 |   61996   103755   259304 |    41847      250     22 | 29.259 % |
|       475 |   61996   103755   259304 |    46032      475     40 | 29.259 % |
|       812 |   61996   103755   259304 |    50635      812     82 | 29.259 % |
|      1318 |   61996   103755   259304 |    55699     1318    123 | 29.259 % |
|      2077 |   61949   103677   259114 |    61269     1893    125 | 29.313 % |
|      3216 |   61949   103578   258854 |    67396     3021    108 | 29.313 % |
===============================================================================
restarts              : 17
conflicts             : 3343           (6805 /sec)
decisions             : 10939          (0.00 % random) (22269 /sec)
propagations          : 5245075        (10677389 /sec)
conflict literals     : 341648         (47.67 % deleted)
Memory used           : 26.51 MB
CPU time              : 0.491232 s

UNSATISFIABLE
